9685
9491
9636
9608
9623
9625
9285
9433
9505
9582
9296
9688
9519
9631
9406
9596
9586
9376
9508
9528
9665
9520
9474
9639
9443
9511
9348
9510
9467
9649
9537
9568
9500
9509
9530
9473
9655
9330
9442
9546
9604
9563
9571
9589
9367
9543
9508
9571
9710
9481
9460
9614
9592
9462
9637
9520
9670
9587
9390
9566
9472
9522
9633
9699
9610
9313
9640
9400
9628
9410
9551
9373
9482
9641
9529
9475
9585
9499
9497
9599
9430
9571
9525
9523
9594
9414
9574
9572
9527
9468
9679
9574
9595
9678
9569
9596
9375
9603
9666
9618
